Minimize
 obj: - x1 - x2 - x3 + xy 
Subject To
 c1:  x1  = 0
 c2:  x2  = 0
 c3:  x3  = 0
 c4:  x1  -24 e_0_1 +9 e_1_2 +7 e_1_4 -4 e_2_3 -11 e_4_7 +4 e_3_5 +8 e_5_8 -10 e_7_6 +17 e_7_10 +0 e_8_9 +7 e_8_11 -2 e_10_12 -13 e_11_14 +6 e_12_13 +19 e_12_15 -1 e_14_13 -10 e_14_16 -28 e_15_18 +5 e_16_19 -7 e_18_17 +5 e_18_21 -9 e_19_20 +2 e_19_22 -13 e_21_23 -6 e_22_25 -6 e_23_24 -9 e_25_24 -3 e_25_26 = 0
 c5:  x2  -6 e_0_1 +4 e_1_2 +14 e_1_4 -16 e_2_3 -7 e_4_7 -12 e_3_5 +16 e_5_8 -3 e_7_6 -17 e_7_10 -3 e_8_9 -3 e_8_11 +13 e_10_12 -5 e_11_14 -8 e_12_13 +11 e_12_15 -4 e_14_13 -7 e_14_16 -17 e_15_18 +10 e_16_19 +2 e_18_17 +12 e_18_21 +2 e_19_20 -6 e_19_22 +2 e_21_23 -14 e_22_25 -4 e_23_24 +14 e_25_24 +1 e_25_26 = 0
 c6:  x3  +1 e_0_1 -7 e_1_2 -9 e_1_4 +9 e_2_3 -8 e_4_7 -30 e_3_5 +0 e_5_8 -8 e_7_6 +13 e_7_10 +3 e_8_9 -9 e_8_11 +15 e_10_12 -5 e_11_14 -14 e_12_13 +2 e_12_15 -18 e_14_13 +2 e_14_16 +9 e_15_18 -8 e_16_19 +5 e_18_17 +3 e_18_21 -2 e_19_20 +17 e_19_22 +13 e_21_23 +4 e_22_25 +11 e_23_24 +8 e_25_24 -11 e_25_26 = 0
 L1_0_1:   e_0_1 + n_0 + n_1 <= 2
 L1_1_2:   e_1_2 + n_1 + n_2 <= 2
 L1_1_4:   e_1_4 + n_1 + n_4 <= 2
 L1_2_3:   e_2_3 + n_2 + n_3 <= 2
 L1_4_7:   e_4_7 + n_4 + n_7 <= 2
 L1_3_5:   e_3_5 + n_3 + n_5 <= 2
 L1_5_8:   e_5_8 + n_5 + n_8 <= 2
 L1_7_6:   e_7_6 + n_7 + n_6 <= 2
 L1_7_10:   e_7_10 + n_7 + n_10 <= 2
 L1_8_9:   e_8_9 + n_8 + n_9 <= 2
 L1_8_11:   e_8_11 + n_8 + n_11 <= 2
 L1_10_12:   e_10_12 + n_10 + n_12 <= 2
 L1_11_14:   e_11_14 + n_11 + n_14 <= 2
 L1_12_13:   e_12_13 + n_12 + n_13 <= 2
 L1_12_15:   e_12_15 + n_12 + n_15 <= 2
 L1_14_13:   e_14_13 + n_14 + n_13 <= 2
 L1_14_16:   e_14_16 + n_14 + n_16 <= 2
 L1_15_18:   e_15_18 + n_15 + n_18 <= 2
 L1_16_19:   e_16_19 + n_16 + n_19 <= 2
 L1_18_17:   e_18_17 + n_18 + n_17 <= 2
 L1_18_21:   e_18_21 + n_18 + n_21 <= 2
 L1_19_20:   e_19_20 + n_19 + n_20 <= 2
 L1_19_22:   e_19_22 + n_19 + n_22 <= 2
 L1_21_23:   e_21_23 + n_21 + n_23 <= 2
 L1_22_25:   e_22_25 + n_22 + n_25 <= 2
 L1_23_24:   e_23_24 + n_23 + n_24 <= 2
 L1_25_24:   e_25_24 + n_25 + n_24 <= 2
 L1_25_26:   e_25_26 + n_25 + n_26 <= 2
 L2_0_1:   e_0_1 - n_0 - n_1 <= 0
 L2_1_2:   e_1_2 - n_1 - n_2 <= 0
 L2_1_4:   e_1_4 - n_1 - n_4 <= 0
 L2_2_3:   e_2_3 - n_2 - n_3 <= 0
 L2_4_7:   e_4_7 - n_4 - n_7 <= 0
 L2_3_5:   e_3_5 - n_3 - n_5 <= 0
 L2_5_8:   e_5_8 - n_5 - n_8 <= 0
 L2_7_6:   e_7_6 - n_7 - n_6 <= 0
 L2_7_10:   e_7_10 - n_7 - n_10 <= 0
 L2_8_9:   e_8_9 - n_8 - n_9 <= 0
 L2_8_11:   e_8_11 - n_8 - n_11 <= 0
 L2_10_12:   e_10_12 - n_10 - n_12 <= 0
 L2_11_14:   e_11_14 - n_11 - n_14 <= 0
 L2_12_13:   e_12_13 - n_12 - n_13 <= 0
 L2_12_15:   e_12_15 - n_12 - n_15 <= 0
 L2_14_13:   e_14_13 - n_14 - n_13 <= 0
 L2_14_16:   e_14_16 - n_14 - n_16 <= 0
 L2_15_18:   e_15_18 - n_15 - n_18 <= 0
 L2_16_19:   e_16_19 - n_16 - n_19 <= 0
 L2_18_17:   e_18_17 - n_18 - n_17 <= 0
 L2_18_21:   e_18_21 - n_18 - n_21 <= 0
 L2_19_20:   e_19_20 - n_19 - n_20 <= 0
 L2_19_22:   e_19_22 - n_19 - n_22 <= 0
 L2_21_23:   e_21_23 - n_21 - n_23 <= 0
 L2_22_25:   e_22_25 - n_22 - n_25 <= 0
 L2_23_24:   e_23_24 - n_23 - n_24 <= 0
 L2_25_24:   e_25_24 - n_25 - n_24 <= 0
 L2_25_26:   e_25_26 - n_25 - n_26 <= 0
 G1_0_1:   e_0_1 + n_0 - n_1 >= 0
 G1_1_2:   e_1_2 + n_1 - n_2 >= 0
 G1_1_4:   e_1_4 + n_1 - n_4 >= 0
 G1_2_3:   e_2_3 + n_2 - n_3 >= 0
 G1_4_7:   e_4_7 + n_4 - n_7 >= 0
 G1_3_5:   e_3_5 + n_3 - n_5 >= 0
 G1_5_8:   e_5_8 + n_5 - n_8 >= 0
 G1_7_6:   e_7_6 + n_7 - n_6 >= 0
 G1_7_10:   e_7_10 + n_7 - n_10 >= 0
 G1_8_9:   e_8_9 + n_8 - n_9 >= 0
 G1_8_11:   e_8_11 + n_8 - n_11 >= 0
 G1_10_12:   e_10_12 + n_10 - n_12 >= 0
 G1_11_14:   e_11_14 + n_11 - n_14 >= 0
 G1_12_13:   e_12_13 + n_12 - n_13 >= 0
 G1_12_15:   e_12_15 + n_12 - n_15 >= 0
 G1_14_13:   e_14_13 + n_14 - n_13 >= 0
 G1_14_16:   e_14_16 + n_14 - n_16 >= 0
 G1_15_18:   e_15_18 + n_15 - n_18 >= 0
 G1_16_19:   e_16_19 + n_16 - n_19 >= 0
 G1_18_17:   e_18_17 + n_18 - n_17 >= 0
 G1_18_21:   e_18_21 + n_18 - n_21 >= 0
 G1_19_20:   e_19_20 + n_19 - n_20 >= 0
 G1_19_22:   e_19_22 + n_19 - n_22 >= 0
 G1_21_23:   e_21_23 + n_21 - n_23 >= 0
 G1_22_25:   e_22_25 + n_22 - n_25 >= 0
 G1_23_24:   e_23_24 + n_23 - n_24 >= 0
 G1_25_24:   e_25_24 + n_25 - n_24 >= 0
 G1_25_26:   e_25_26 + n_25 - n_26 >= 0
 G2_0_1:   e_0_1 - n_0 + n_1 >= 0
 G2_1_2:   e_1_2 - n_1 + n_2 >= 0
 G2_1_4:   e_1_4 - n_1 + n_4 >= 0
 G2_2_3:   e_2_3 - n_2 + n_3 >= 0
 G2_4_7:   e_4_7 - n_4 + n_7 >= 0
 G2_3_5:   e_3_5 - n_3 + n_5 >= 0
 G2_5_8:   e_5_8 - n_5 + n_8 >= 0
 G2_7_6:   e_7_6 - n_7 + n_6 >= 0
 G2_7_10:   e_7_10 - n_7 + n_10 >= 0
 G2_8_9:   e_8_9 - n_8 + n_9 >= 0
 G2_8_11:   e_8_11 - n_8 + n_11 >= 0
 G2_10_12:   e_10_12 - n_10 + n_12 >= 0
 G2_11_14:   e_11_14 - n_11 + n_14 >= 0
 G2_12_13:   e_12_13 - n_12 + n_13 >= 0
 G2_12_15:   e_12_15 - n_12 + n_15 >= 0
 G2_14_13:   e_14_13 - n_14 + n_13 >= 0
 G2_14_16:   e_14_16 - n_14 + n_16 >= 0
 G2_15_18:   e_15_18 - n_15 + n_18 >= 0
 G2_16_19:   e_16_19 - n_16 + n_19 >= 0
 G2_18_17:   e_18_17 - n_18 + n_17 >= 0
 G2_18_21:   e_18_21 - n_18 + n_21 >= 0
 G2_19_20:   e_19_20 - n_19 + n_20 >= 0
 G2_19_22:   e_19_22 - n_19 + n_22 >= 0
 G2_21_23:   e_21_23 - n_21 + n_23 >= 0
 G2_22_25:   e_22_25 - n_22 + n_25 >= 0
 G2_23_24:   e_23_24 - n_23 + n_24 >= 0
 G2_25_24:   e_25_24 - n_25 + n_24 >= 0
 G2_25_26:   e_25_26 - n_25 + n_26 >= 0
Bounds
       x1 Free
       x2 Free
       x3 Free
 0 <= e_0_1 <= 1
 0 <= e_1_2 <= 1
 0 <= e_1_4 <= 1
 0 <= e_2_3 <= 1
 0 <= e_4_7 <= 1
 0 <= e_3_5 <= 1
 0 <= e_5_8 <= 1
 0 <= e_7_6 <= 1
 0 <= e_7_10 <= 1
 0 <= e_8_9 <= 1
 0 <= e_8_11 <= 1
 0 <= e_10_12 <= 1
 0 <= e_11_14 <= 1
 0 <= e_12_13 <= 1
 0 <= e_12_15 <= 1
 0 <= e_14_13 <= 1
 0 <= e_14_16 <= 1
 0 <= e_15_18 <= 1
 0 <= e_16_19 <= 1
 0 <= e_18_17 <= 1
 0 <= e_18_21 <= 1
 0 <= e_19_20 <= 1
 0 <= e_19_22 <= 1
 0 <= e_21_23 <= 1
 0 <= e_22_25 <= 1
 0 <= e_23_24 <= 1
 0 <= e_25_24 <= 1
 0 <= e_25_26 <= 1
 0 <= n_0 <= 1
 0 <= n_1 <= 1
 0 <= n_2 <= 1
 0 <= n_4 <= 1
 0 <= n_3 <= 1
 0 <= n_5 <= 1
 0 <= n_7 <= 1
 0 <= n_8 <= 1
 0 <= n_6 <= 1
 0 <= n_10 <= 1
 0 <= n_9 <= 1
 0 <= n_11 <= 1
 0 <= n_12 <= 1
 0 <= n_14 <= 1
 0 <= n_13 <= 1
 0 <= n_15 <= 1
 0 <= n_16 <= 1
 0 <= n_18 <= 1
 0 <= n_19 <= 1
 0 <= n_17 <= 1
 0 <= n_21 <= 1
 0 <= n_20 <= 1
 0 <= n_22 <= 1
 0 <= n_23 <= 1
 0 <= n_25 <= 1
 0 <= n_24 <= 1
 0 <= n_26 <= 1
     xy = 0
Binaries
 e_0_1  e_1_2  e_1_4  e_2_3  e_4_7  e_3_5  e_5_8  e_7_6  e_7_10  e_8_9  e_8_11  e_10_12  e_11_14  e_12_13  e_12_15  e_14_13  e_14_16  e_15_18  e_16_19  e_18_17  e_18_21  e_19_20  e_19_22  e_21_23  e_22_25  e_23_24  e_25_24  e_25_26  n_0  n_1  n_2  n_4  n_3  n_5  n_7  n_8  n_6  n_10  n_9  n_11  n_12  n_14  n_13  n_15  n_16  n_18  n_19  n_17  n_21  n_20  n_22  n_23  n_25  n_24  n_26 
End